Please solve the following SAT Problem encoded in DIMACS format, provide line of thoughts, write your final answer as a single solution at the end of response with header 'answer: ' : 
p cnf 10 55
-10 -6 -3 0
1 10 -5 0
5 4 7 0
-3 2 -10 0
4 10 7 0
1 6 -3 0
-9 -7 -6 0
5 -9 -3 0
4 2 1 0
-10 5 4 0
-6 5 -10 0
1 -10 -5 0
4 -1 -3 0
-6 7 -8 0
2 -6 -7 0
2 4 -6 0
1 9 -4 0
1 -6 5 0
1 3 4 0
-9 6 5 0
-9 1 2 0
5 -6 -7 0
-10 -7 2 0
2 -4 -8 0
4 -6 -7 0
4 -1 2 0
-7 -2 -8 0
1 5 -9 0
-8 -2 -7 0
4 -10 -9 0
-6 4 -7 0
-7 4 1 0
-10 2 -9 0
9 4 -5 0
-6 1 -8 0
-9 2 8 0
-7 -2 -5 0
3 -7 -5 0
-4 -9 10 0
5 -7 2 0
5 -3 1 0
-8 -10 -9 0
5 -1 6 0
2 -3 1 0
5 4 2 0
4 9 1 0
-7 4 -1 0
7 -9 -3 0
-8 -3 1 0
-7 1 -9 0
-6 -9 4 0
2 -10 -7 0
-3 -8 -9 0
1 3 -9 0
1 5 -9 0

